c Generated map
c Size: 8 * 8, weights in range: 1 to 10, walls: True, with ratio 0.05
c dim 8 of 8
c
p sp 64 102
c graph contains 64 nodes and 102 arcs
c
a 1 9 3
a 9 1 3
a 1 2 8
a 2 1 8
a 2 10 1
a 10 2 1
a 2 3 7
a 3 2 7
a 3 11 9
a 11 3 9
a 3 4 9
a 4 3 9
a 4 12 8
a 12 4 8
a 4 5 9
a 5 4 9
a 5 13 9
a 13 5 9
a 5 6 8
a 6 5 8
a 6 14 5
a 14 6 5
a 6 7 9
a 7 6 9
a 7 15 1
a 15 7 1
a 7 8 2
a 8 7 2
a 8 16 10
a 16 8 10
a 9 17 1
a 17 9 1
a 9 10 1
a 10 9 1
a 10 18 8
a 18 10 8
a 10 11 1
a 11 10 1
a 11 19 2
a 19 11 2
a 11 12 7
a 12 11 7
a 12 20 7
a 20 12 7
a 12 13 9
a 13 12 9
a 13 21 3
a 21 13 3
a 13 14 2
a 14 13 2
a 14 22 10
a 22 14 10
a 14 15 9
a 15 14 9
a 15 23 10
a 23 15 10
a 15 16 7
a 16 15 7
a 16 24 3
a 24 16 3
a 17 25 6
a 25 17 6
a 17 18 6
a 18 17 6
a 18 26 1
a 26 18 1
a 18 19 7
a 19 18 7
a 19 27 10
a 27 19 10
a 19 20 4
a 20 19 4
a 20 28 9
a 28 20 9
a 20 21 9
a 21 20 9
a 21 29 1
a 29 21 1
a 21 22 7
a 22 21 7
a 22 30 10
a 30 22 10
a 22 23 7
a 23 22 7
a 23 31 7
a 31 23 7
a 23 24 6
a 24 23 6
a 25 33 7
a 33 25 7
a 25 26 3
a 26 25 3
a 26 34 4
a 34 26 4
a 26 27 5
a 27 26 5
a 27 35 3
a 35 27 3
a 27 28 5
a 28 27 5
a 28 36 6
a 36 28 6
a 28 29 2
a 29 28 2
a 29 37 2
a 37 29 2
a 29 30 10
a 30 29 10
a 30 38 8
a 38 30 8
a 30 31 7
a 31 30 7
a 31 39 2
a 39 31 2
a 33 41 8
a 41 33 8
a 33 34 5
a 34 33 5
a 34 42 2
a 42 34 2
a 34 35 7
a 35 34 7
a 35 43 7
a 43 35 7
a 35 36 7
a 36 35 7
a 36 37 7
a 37 36 7
a 37 45 3
a 45 37 3
a 37 38 2
a 38 37 2
a 38 46 10
a 46 38 10
a 38 39 5
a 39 38 5
a 39 47 8
a 47 39 8
a 39 40 5
a 40 39 5
a 40 48 9
a 48 40 9
a 41 49 4
a 49 41 4
a 41 42 1
a 42 41 1
a 42 50 8
a 50 42 8
a 42 43 4
a 43 42 4
a 43 51 8
a 51 43 8
a 45 53 9
a 53 45 9
a 45 46 4
a 46 45 4
a 46 54 9
a 54 46 9
a 46 47 7
a 47 46 7
a 47 55 1
a 55 47 1
a 47 48 9
a 48 47 9
a 48 56 4
a 56 48 4
a 49 57 5
a 57 49 5
a 49 50 9
a 50 49 9
a 50 58 10
a 58 50 10
a 50 51 4
a 51 50 4
a 51 59 9
a 59 51 9
a 51 52 1
a 52 51 1
a 52 60 4
a 60 52 4
a 52 53 8
a 53 52 8
a 53 54 9
a 54 53 9
a 54 62 6
a 62 54 6
a 54 55 2
a 55 54 2
a 55 63 7
a 63 55 7
a 55 56 8
a 56 55 8
a 56 64 1
a 64 56 1
a 57 58 7
a 58 57 7
a 58 59 3
a 59 58 3
a 59 60 4
a 60 59 4
a 62 63 4
a 63 62 4
a 63 64 9
a 64 63 9
